c colouring generated by benchmark framework
p edge 144 2596
v 1 2
v 2 13
v 3 4
v 4 17
v 5 10
v 6 8
v 7 14
v 8 12
v 9 9
v 10 7
v 11 5
v 12 0
v 13 8
v 14 10
v 15 12
v 16 3
v 17 2
v 18 6
v 19 7
v 20 11
v 21 5
v 22 15
v 23 9
v 24 13
v 25 16
v 26 4
v 27 7
v 28 0
v 29 5
v 30 3
v 31 12
v 32 15
v 33 17
v 34 1
v 35 14
v 36 8
v 37 7
v 38 9
v 39 11
v 40 16
v 41 6
v 42 17
v 43 13
v 44 1
v 45 14
v 46 5
v 47 3
v 48 2
v 49 5
v 50 6
v 51 1
v 52 15
v 53 14
v 54 9
v 55 8
v 56 7
v 57 2
v 58 11
v 59 0
v 60 17
v 61 15
v 62 7
v 63 8
v 64 5
v 65 0
v 66 11
v 67 10
v 68 9
v 69 1
v 70 13
v 71 2
v 72 6
v 73 13
v 74 11
v 75 16
v 76 1
v 77 3
v 78 12
v 79 0
v 80 5
v 81 15
v 82 6
v 83 8
v 84 9
v 85 9
v 86 1
v 87 6
v 88 12
v 89 16
v 90 10
v 91 2
v 92 8
v 93 7
v 94 14
v 95 11
v 96 3
v 97 4
v 98 17
v 99 14
v 100 13
v 101 11
v 102 0
v 103 6
v 104 10
v 105 3
v 106 8
v 107 7
v 108 5
v 109 14
v 110 16
v 111 3
v 112 7
v 113 9
v 114 1
v 115 15
v 116 0
v 117 13
v 118 4
v 119 17
v 120 10
v 121 10
v 122 2
v 123 15
v 124 6
v 125 12
v 126 14
v 127 4
v 128 17
v 129 8
v 130 16
v 131 13
v 132 11
v 133 11
v 134 8
v 135 13
v 136 10
v 137 1
v 138 2
v 139 16
v 140 14
v 141 4
v 142 12
v 143 6
v 144 15
